sat
(:added-eqs                   463
 :arith-eq-adapter            115
 :arith-bound-propagations-lp 99
 :arith-conflicts             3
 :arith-diseq                 9
 :arith-fixed-eqs             54
 :arith-gcd-calls             1
 :arith-grobner-calls         3
 :arith-horner-calls          1
 :arith-lower                 162
 :arith-make-feasible         22
 :arith-max-columns           562
 :arith-max-rows              159
 :arith-nla-add-bounds        2
 :arith-nla-lemmas            1
 :arith-nla-propagate-bounds  2
 :arith-nla-propagate-eq      124
 :arith-nra-calls             1
 :arith-offset-eqs            1
 :arith-patches               1
 :arith-patches-success       1
 :arith-upper                 191
 :binary-propagations         271
 :conflicts                   1
 :decisions                   71
 :del-clause                  19
 :final-checks                5
 :max-memory                  56.51
 :memory                      18.22
 :mk-bool-var                 672
 :mk-clause                   228
 :mk-clause-binary            5324
 :nlsat-conflicts             93
 :nlsat-decisions             9
 :nlsat-propagations          2463
 :nlsat-stages                1409
 :num-allocs                  6399471
 :num-checks                  1
 :propagations                323
 :rlimit-count                75475
 :sls-ddfw-flips              443.00
 :sls-ddfw-shifts             28.00
 :solve-eqs-elim-vars         170
 :solve-eqs-steps             1052
 :time                        0.09
 :total-time                  0.05)
